<instance format="XCSP3" type="CSP">
  <variables>
    <var id="x0"> 6 7 9 12 </var>
    <var id="x1"> 2 3 6 10 </var>
    <var id="x2"> 2 9 10 12 </var>
    <var id="x3"> 2 6 7 10 12 </var>
    <var id="x4"> 2 3 9 10 </var>
    <var id="x5"> 3 8 10 </var>
    <var id="x6"> 2 3 8 9 12 </var>
    <var id="x7"> 2 7..10 </var>
    <var id="x8"> 3 5 </var>
    <var id="x9"> 3 5 8 </var>
    <var id="x10"> 3 7 12 14 </var>
    <var id="x11"> 5 12 </var>
    <var id="x12"> 3 11 12 14 </var>
    <var id="x13"> 5 7 8 </var>
    <var id="x14"> 3 8 11 14 </var>
    <var id="x15"> 5 6 9 11 </var>
    <var id="x16"> 2 3 9 11 </var>
    <var id="x17"> 2 3 6 9 </var>
    <var id="x18"> 1..3 9 11 </var>
    <var id="x19"> 1 2 5 11 </var>
    <var id="x20"> 3 6 9 11 </var>
    <var id="x21"> 1..3 11 </var>
    <var id="x22"> 5 6 11 12 </var>
    <var id="x23"> 2 3 5 </var>
    <var id="x24"> 2 3 6 12 14 </var>
    <var id="x25"> 2 6 10 12 14 </var>
    <var id="x26"> 5 6 12 14 </var>
    <var id="x27"> 3 5 10 </var>
    <var id="x28"> 2 5 10 </var>
    <var id="x29"> 2 3 10 11 14 </var>
    <var id="x30"> 2 11 </var>
    <var id="x31"> 0..2 5 10 </var>
    <var id="x32"> 5 6 </var>
    <var id="x33"> 1 2 5 11 </var>
    <var id="x34"> 6 10 11 </var>
    <var id="x35"> 0 1 5 10 </var>
    <var id="x36"> 1 2 10 11 </var>
    <var id="x37"> 2 12 14 </var>
    <var id="x38"> 0..2 5 12 </var>
    <var id="x39"> 0 2 12 14 </var>
    <var id="x40"> 0..2 14 </var>
    <var id="x41"> 4 5 12 14 </var>
    <var id="x42"> 1 2 5 14 </var>
    <var id="x43"> 2 4 5 12 </var>
    <var id="x44"> 2 3 8 </var>
    <var id="x45"> 2 3 </var>
    <var id="x46"> 0 2 10 </var>
    <var id="x47"> 0 2 3 10 </var>
    <var id="x48"> 4 5 8 </var>
    <var id="x49"> 2..5 8 </var>
    <var id="x50"> 2 3 8 10 </var>
    <var id="x51"> 3 7 9 </var>
    <var id="x52"> 0 1 3 13 </var>
    <var id="x53"> 0 1 9 </var>
    <var id="x54"> 0 6 7 </var>
    <var id="x55"> 6 9 </var>
    <var id="x56"> 3 6 9 </var>
    <var id="x57"> 3 9 </var>
    <var id="x58"> 0 2 5 </var>
    <var id="x59"> 2 8 9 11 12 </var>
    <var id="x60"> 0 2 5 8 </var>
    <var id="x61"> 0 2 9 11 </var>
    <var id="x62"> 9 11 12 </var>
    <var id="x63"> 0 5 8 </var>
    <var id="x64"> 0 2 5 8 9 </var>
    <var id="x65"> 0 6 10 </var>
    <var id="x66"> 0 6 10 14 </var>
    <var id="x67"> 0 1 9..11 14 </var>
    <var id="x68"> 1 11 14 </var>
    <var id="x69"> 6 9..11 14 </var>
    <var id="x70"> 0 1 10 </var>
    <var id="x71"> 0 9 10 </var>
    <var id="x72"> 7 9 13 </var>
    <var id="x73"> 0 2 13 </var>
    <var id="x74"> 2 7 9 14 </var>
    <var id="x75"> 0 2 9 10 </var>
    <var id="x76"> 9 14 </var>
    <var id="x77"> 2 7 13 14 </var>
    <var id="x78"> 2 9 </var>
    <var id="x79"> 7 9 13 </var>
    <var id="x80"> 10 </var>
    <var id="x81"> 1 8 13 </var>
    <var id="x82"> 1 7 13 </var>
    <var id="x83"> 8 9 </var>
    <var id="x84"> 1 8 10 </var>
    <var id="x85"> 2 3 5 </var>
    <var id="x86"> 2 3 5 8 13 </var>
    <var id="x87"> 2 3 14 </var>
    <var id="x88"> 2 5 13 14 </var>
    <var id="x89"> 3 12 14 </var>
    <var id="x90"> 3 5 8 13 </var>
    <var id="x91"> 2 3 5 8 12 </var>
    <var id="x92"> 5 7 9 12 </var>
    <var id="x93"> 2 3 7..9 12 </var>
    <var id="x94"> 2 3 7 9 12 </var>
    <var id="x95"> 5 8 9 12 </var>
    <var id="x96"> 3 5 8 </var>
    <var id="x97"> 2 5 7..9 </var>
    <var id="x98"> 2 3 8 </var>
    <var id="x99"> 9 12 </var>
    <var id="x100"> 2..4 10 </var>
    <var id="x101"> 2 3 9 12 </var>
    <var id="x102"> 2 9 10 12 </var>
    <var id="x103"> 2 10 12 14 </var>
    <var id="x104"> 2 3 9 10 14 </var>
    <var id="x105"> 2 9 10 </var>
  </variables>
  <constraints>
    <group>
      <allDifferent> %... </allDifferent>
      <args> x0 x1 x2 x3 x4 x5 x6 x7 </args>
      <args> x8 x9 x10 x11 x12 x13 x14 </args>
      <args> x15 x16 x17 x18 x19 x20 x21 </args>
      <args> x22 x23 x24 x25 x26 x27 x28 x29 </args>
      <args> x30 x31 x32 x33 x34 x35 x36 </args>
      <args> x37 x38 x39 x40 x41 x42 x43 </args>
      <args> x44 x45 x46 x47 x48 x49 x50 </args>
      <args> x51 x52 x53 x54 x55 x56 x57 </args>
      <args> x58 x59 x60 x61 x62 x63 x64 </args>
      <args> x65 x66 x67 x68 x69 x70 x71 </args>
      <args> x72 x73 x74 x75 x76 x77 x78 </args>
      <args> x79 x80 x81 x82 x83 x84 </args>
      <args> x85 x86 x87 x88 x89 x90 x91 </args>
      <args> x92 x93 x94 x95 x96 x97 x98 </args>
      <args> x99 x100 x101 x102 x103 x104 x105 </args>
      <args> x0 x15 x22 x72 x79 x92 x99 </args>
      <args> x1 x8 x58 x65 x80 x85 x100 </args>
      <args> x16 x30 x44 x51 x59 x93 x101 </args>
      <args> x9 x23 x52 x60 x73 x81 x86 </args>
      <args> x10 x17 x24 x37 x45 x74 x94 </args>
      <args> x2 x11 x31 x38 x53 x75 x102 </args>
      <args> x3 x25 x39 x46 x54 x66 x103 </args>
      <args> x4 x18 x40 x47 x61 x67 x87 x104 </args>
      <args> x26 x32 x41 x48 x55 x76 x95 </args>
      <args> x19 x33 x42 x68 x77 x82 x88 </args>
      <args> x12 x20 x34 x56 x62 x69 x89 </args>
      <args> x5 x27 x35 x63 x70 x90 x96 </args>
      <args> x6 x43 x49 x57 x78 x83 x91 </args>
      <args> x7 x13 x28 x64 x71 x97 x105 </args>
      <args> x14 x21 x29 x36 x50 x84 x98 </args>
    </group>
  </constraints>
</instance>

